cra-25/on/on.smt2
(declare-const Bracket_1 Real)
(declare-const Bracket_2 Real)
(declare-const Bracket_3 Real)
(declare-const Bracket_4 Real)
(declare-const Bracket_5 Real)
(declare-const FinalTaxes Real)
(declare-const Income Real)

(assert (=> (<= Income 52886.0) (and (= Bracket_1 (* Income 0.0505)) (= Bracket_2 0.0) (= Bracket_3 0.0) (= Bracket_4 0.0) (= Bracket_5 0.0))))
(assert (=> (and (> Income 52886.0) (<= Income 105775.0)) (and (= Bracket_1 (* 52886.0 0.0505)) (= Bracket_2 (* (- Income 52886.0) 0.0915)) (= Bracket_3 0.0) (= Bracket_4 0.0) (= Bracket_5 0.0))))
(assert (=> (and (> Income 105775.0) (<= Income 150000.0)) (and (= Bracket_1 (* 52886.0 0.0505)) (= Bracket_2 (* (- 105775.0 52886.0) 0.0915)) (= Bracket_3 (* (- Income 105775.0) 0.1116)) (= Bracket_4 0.0) (= Bracket_5 0.0))))
(assert (=> (and (> Income 150000.0) (<= Income 220000.0)) (and (= Bracket_1 (* 52886.0 0.0505)) (= Bracket_2 (* (- 105775.0 52886.0) 0.0915)) (= Bracket_3 (* (- 150000.0 105775.0) 0.1116)) (= Bracket_4 (* (- Income 150000.0) 0.1216)) (= Bracket_5 0.0))))
(assert (=> (> Income 220000.0) (and (= Bracket_1 (* 52886.0 0.0505)) (= Bracket_2 (* (- 105775.0 52886.0) 0.0915)) (= Bracket_3 (* (- 150000.0 105775.0) 0.1116)) (= Bracket_4 (* (- 220000.0 150000.0) 0.1216)) (= Bracket_5 (* (- Income 220000.0) 0.1316)))))
(assert (= FinalTaxes (+ Bracket_1 Bracket_2 Bracket_3 Bracket_4 Bracket_5)))
